90 4005
1 2 176
1 3 109
1 4 132
1 5 70
1 6 229
1 7 70
1 8 237
1 9 133
1 10 258
1 11 95
1 12 250
1 13 71
1 14 163
1 15 91
1 16 154
1 17 218
1 18 134
1 19 49
1 20 106
1 21 6
1 22 147
1 23 130
1 24 79
1 25 105
1 26 26
1 27 60
1 28 130
1 29 266
1 30 110
1 31 0
1 32 93
1 33 221
1 34 94
1 35 0
1 36 139
1 37 154
1 38 71
1 39 51
1 40 156
1 41 152
1 42 91
1 43 174
1 44 62
1 45 199
1 46 36
1 47 228
1 48 128
1 49 186
1 50 192
1 51 45
1 52 211
1 53 189
1 54 265
1 55 101
1 56 47
1 57 197
1 58 92
1 59 262
1 60 164
1 61 36
1 62 78
1 63 4
1 64 224
1 65 171
1 66 27
1 67 143
1 68 5
1 69 250
1 70 68
1 71 111
1 72 17
1 73 218
1 74 174
1 75 267
1 76 155
1 77 7
1 78 163
1 79 131
1 80 70
1 81 256
1 82 56
1 83 250
1 84 75
1 85 14
1 86 117
1 87 262
1 88 62
1 89 30
1 90 233
2 3 57
2 4 254
2 5 64
2 6 58
2 7 80
2 8 240
2 9 154
2 10 132
2 11 171
2 12 193
2 13 165
2 14 13
2 15 118
2 16 163
2 17 142
2 18 258
2 19 104
2 20 192
2 21 52
2 22 26
2 23 173
2 24 68
2 25 189
2 26 78
2 27 147
2 28 176
2 29 241
2 30 239
2 31 28
2 32 187
2 33 132
2 34 169
2 35 27
2 36 252
2 37 228
2 38 245
2 39 54
2 40 21
2 41 149
2 42 205
2 43 239
2 44 262
2 45 237
2 46 192
2 47 200
2 48 224
2 49 260
2 50 60
2 51 217
2 52 75
2 53 125
2 54 183
2 55 173
2 56 224
2 57 40
2 58 195
2 59 220
2 60 69
2 61 235
2 62 220
2 63 178
2 64 129
2 65 47
2 66 174
2 67 12
2 68 96
2 69 53
2 70 21
2 71 235
2 72 78
2 73 33
2 74 83
2 75 249
2 76 32
2 77 196
2 78 59
2 79 109
2 80 169
2 81 122
2 82 241
2 83 159
2 84 113
2 85 22
2 86 261
2 87 161
2 88 217
2 89 266
2 90 182
3 4 72
3 5 209
3 6 185
3 7 207
3 8 215
3 9 41
3 10 214
3 11 122
3 12 245
3 13 184
3 14 19
3 15 211
3 16 255
3 17 164
3 18 261
3 19 167
3 20 39
3 21 155
3 22 49
3 23 152
3 24 66
3 25 10
3 26 137
3 27 134
3 28 105
3 29 180
3 30 146
3 31 108
3 32 251
3 33 165
3 34 242
3 35 269
3 36 85
3 37 135
3 38 230
3 39 64
3 40 171
3 41 231
3 42 266
3 43 199
3 44 51
3 45 123
3 46 153
3 47 242
3 48 173
3 49 143
3 50 128
3 51 57
3 52 211
3 53 33
3 54 132
3 55 142
3 56 41
3 57 152
3 58 238
3 59 178
3 60 226
3 61 155
3 62 237
3 63 113
3 64 103
3 65 122
3 66 117
3 67 59
3 68 73
3 69 84
3 70 199
3 71 61
3 72 209
3 73 4
3 74 44
3 75 50
3 76 224
3 77 89
3 78 181
3 79 109
3 80 217
3 81 55
3 82 259
3 83 266
3 84 32
3 85 9
3 86 239
3 87 119
3 88 74
3 89 198
3 90 21
4 5 193
4 6 156
4 7 262
4 8 59
4 9 158
4 10 63
4 11 186
4 12 224
4 13 241
4 14 47
4 15 171
4 16 258
4 17 35
4 18 69
4 19 200
4 20 185
4 21 244
4 22 194
4 23 129
4 24 163
4 25 31
4 26 56
4 27 209
4 28 165
4 29 20
4 30 209
4 31 13
4 32 99
4 33 179
4 34 75
4 35 140
4 36 64
4 37 70
4 38 92
4 39 87
4 40 190
4 41 76
4 42 131
4 43 177
4 44 94
4 45 189
4 46 209
4 47 75
4 48 190
4 49 95
4 50 56
4 51 99
4 52 105
4 53 121
4 54 269
4 55 219
4 56 72
4 57 95
4 58 187
4 59 49
4 60 50
4 61 200
4 62 140
4 63 107
4 64 150
4 65 190
4 66 247
4 67 95
4 68 3
4 69 79
4 70 147
4 71 0
4 72 80
4 73 134
4 74 198
4 75 131
4 76 6
4 77 126
4 78 88
4 79 257
4 80 88
4 81 198
4 82 103
4 83 196
4 84 15
4 85 174
4 86 64
4 87 44
4 88 238
4 89 136
4 90 224
5 6 205
5 7 138
5 8 207
5 9 161
5 10 187
5 11 70
5 12 230
5 13 236
5 14 268
5 15 133
5 16 93
5 17 33
5 18 102
5 19 170
5 20 102
5 21 164
5 22 56
5 23 193
5 24 128
5 25 78
5 26 223
5 27 121
5 28 174
5 29 238
5 30 208
5 31 154
5 32 51
5 33 231
5 34 83
5 35 67
5 36 123
5 37 97
5 38 135
5 39 73
5 40 218
5 41 141
5 42 133
5 43 163
5 44 106
5 45 70
5 46 148
5 47 84
5 48 89
5 49 181
5 50 182
5 51 204
5 52 14
5 53 198
5 54 96
5 55 1
5 56 214
5 57 150
5 58 212
5 59 65
5 60 113
5 61 149
5 62 28
5 63 228
5 64 249
5 65 241
5 66 103
5 67 186
5 68 41
5 69 211
5 70 148
5 71 145
5 72 205
5 73 80
5 74 63
5 75 24
5 76 261
5 77 134
5 78 175
5 79 121
5 80 189
5 81 151
5 82 143
5 83 123
5 84 132
5 85 79
5 86 179
5 87 137
5 88 200
5 89 161
5 90 139
6 7 182
6 8 13
6 9 12
6 10 81
6 11 54
6 12 204
6 13 52
6 14 26
6 15 67
6 16 169
6 17 201
6 18 169
6 19 227
6 20 69
6 21 195
6 22 212
6 23 100
6 24 39
6 25 172
6 26 269
6 27 147
6 28 120
6 29 34
6 30 107
6 31 39
6 32 74
6 33 114
6 34 61
6 35 131
6 36 85
6 37 262
6 38 23
6 39 259
6 40 95
6 41 36
6 42 58
6 43 221
6 44 94
6 45 226
6 46 110
6 47 172
6 48 168
6 49 85
6 50 87
6 51 102
6 52 108
6 53 143
6 54 201
6 55 64
6 56 259
6 57 246
6 58 20
6 59 180
6 60 171
6 61 155
6 62 110
6 63 200
6 64 216
6 65 198
6 66 39
6 67 111
6 68 101
6 69 91
6 70 164
6 71 8
6 72 44
6 73 145
6 74 133
6 75 61
6 76 257
6 77 52
6 78 42
6 79 115
6 80 231
6 81 206
6 82 3
6 83 212
6 84 59
6 85 228
6 86 151
6 87 217
6 88 167
6 89 251
6 90 101
7 8 15
7 9 162
7 10 267
7 11 258
7 12 0
7 13 161
7 14 81
7 15 203
7 16 54
7 17 65
7 18 191
7 19 226
7 20 1
7 21 250
7 22 39
7 23 35
7 24 159
7 25 8
7 26 39
7 27 26
7 28 192
7 29 236
7 30 188
7 31 184
7 32 25
7 33 238
7 34 250
7 35 141
7 36 56
7 37 57
7 38 14
7 39 124
7 40 36
7 41 265
7 42 57
7 43 47
7 44 43
7 45 67
7 46 135
7 47 259
7 48 182
7 49 110
7 50 213
7 51 171
7 52 115
7 53 146
7 54 97
7 55 231
7 56 43
7 57 75
7 58 216
7 59 158
7 60 170
7 61 172
7 62 70
7 63 37
7 64 26
7 65 43
7 66 17
7 67 23
7 68 212
7 69 204
7 70 62
7 71 177
7 72 81
7 73 200
7 74 89
7 75 46
7 76 15
7 77 77
7 78 111
7 79 42
7 80 197
7 81 75
7 82 67
7 83 118
7 84 199
7 85 173
7 86 94
7 87 86
7 88 188
7 89 194
7 90 68
8 9 192
8 10 106
8 11 98
8 12 144
8 13 78
8 14 8
8 15 101
8 16 76
8 17 110
8 18 139
8 19 239
8 20 207
8 21 122
8 22 186
8 23 62
8 24 150
8 25 170
8 26 249
8 27 72
8 28 8
8 29 253
8 30 215
8 31 244
8 32 116
8 33 18
8 34 50
8 35 100
8 36 261
8 37 190
8 38 202
8 39 255
8 40 16
8 41 96
8 42 251
8 43 76
8 44 219
8 45 243
8 46 188
8 47 146
8 48 118
8 49 149
8 50 237
8 51 46
8 52 245
8 53 194
8 54 61
8 55 138
8 56 50
8 57 78
8 58 43
8 59 95
8 60 175
8 61 24
8 62 2
8 63 27
8 64 193
8 65 149
8 66 162
8 67 106
8 68 0
8 69 152
8 70 133
8 71 86
8 72 159
8 73 20
8 74 246
8 75 174
8 76 184
8 77 125
8 78 204
8 79 74
8 80 217
8 81 263
8 82 157
8 83 222
8 84 83
8 85 37
8 86 97
8 87 186
8 88 168
8 89 33
8 90 137
9 10 69
9 11 42
9 12 187
9 13 28
9 14 111
9 15 162
9 16 43
9 17 151
9 18 108
9 19 44
9 20 178
9 21 101
9 22 240
9 23 97
9 24 197
9 25 61
9 26 72
9 27 263
9 28 250
9 29 238
9 30 33
9 31 198
9 32 125
9 33 172
9 34 63
9 35 258
9 36 248
9 37 119
9 38 190
9 39 173
9 40 19
9 41 36
9 42 29
9 43 65
9 44 14
9 45 18
9 46 130
9 47 244
9 48 130
9 49 112
9 50 81
9 51 113
9 52 198
9 53 205
9 54 140
9 55 223
9 56 17
9 57 171
9 58 61
9 59 3
9 60 105
9 61 202
9 62 43
9 63 108
9 64 166
9 65 145
9 66 194
9 67 169
9 68 2
9 69 216
9 70 149
9 71 91
9 72 75
9 73 112
9 74 2
9 75 194
9 76 151
9 77 122
9 78 157
9 79 44
9 80 159
9 81 267
9 82 85
9 83 11
9 84 236
9 85 257
9 86 61
9 87 189
9 88 241
9 89 250
9 90 236
10 11 261
10 12 127
10 13 229
10 14 205
10 15 220
10 16 63
10 17 17
10 18 169
10 19 175
10 20 109
10 21 164
10 22 142
10 23 19
10 24 22
10 25 136
10 26 247
10 27 223
10 28 163
10 29 137
10 30 153
10 31 201
10 32 45
10 33 74
10 34 203
10 35 165
10 36 142
10 37 100
10 38 26
10 39 245
10 40 135
10 41 244
10 42 101
10 43 200
10 44 70
10 45 217
10 46 79
10 47 243
10 48 4
10 49 13
10 50 92
10 51 102
10 52 141
10 53 30
10 54 173
10 55 139
10 56 122
10 57 87
10 58 231
10 59 65
10 60 124
10 61 192
10 62 41
10 63 45
10 64 146
10 65 170
10 66 197
10 67 154
10 68 31
10 69 3
10 70 3
10 71 189
10 72 39
10 73 117
10 74 130
10 75 93
10 76 141
10 77 4
10 78 224
10 79 109
10 80 237
10 81 38
10 82 64
10 83 234
10 84 130
10 85 84
10 86 51
10 87 244
10 88 47
10 89 178
10 90 136
11 12 202
11 13 82
11 14 249
11 15 223
11 16 213
11 17 4
11 18 193
11 19 173
11 20 85
11 21 3
11 22 266
11 23 123
11 24 193
11 25 62
11 26 166
11 27 240
11 28 226
11 29 239
11 30 258
11 31 34
11 32 220
11 33 0
11 34 203
11 35 97
11 36 122
11 37 206
11 38 37
11 39 262
11 40 228
11 41 54
11 42 229
11 43 120
11 44 114
11 45 133
11 46 27
11 47 200
11 48 208
11 49 213
11 50 44
11 51 84
11 52 59
11 53 262
11 54 29
11 55 57
11 56 97
11 57 189
11 58 190
11 59 226
11 60 250
11 61 263
11 62 8
11 63 78
11 64 201
11 65 186
11 66 37
11 67 265
11 68 220
11 69 100
11 70 114
11 71 12
11 72 187
11 73 166
11 74 22
11 75 267
11 76 177
11 77 31
11 78 104
11 79 88
11 80 123
11 81 112
11 82 182
11 83 172
11 84 133
11 85 230
11 86 244
11 87 1
11 88 232
11 89 94
11 90 74
12 13 242
12 14 247
12 15 64
12 16 76
12 17 224
12 18 234
12 19 190
12 20 260
12 21 251
12 22 103
12 23 61
12 24 206
12 25 137
12 26 136
12 27 187
12 28 79
12 29 181
12 30 170
12 31 261
12 32 50
12 33 1
12 34 253
12 35 135
12 36 125
12 37 110
12 38 72
12 39 183
12 40 217
12 41 78
12 42 110
12 43 95
12 44 93
12 45 207
12 46 93
12 47 11
12 48 27
12 49 7
12 50 159
12 51 230
12 52 153
12 53 188
12 54 78
12 55 125
12 56 168
12 57 223
12 58 262
12 59 2
12 60 228
12 61 111
12 62 159
12 63 257
12 64 31
12 65 76
12 66 160
12 67 224
12 68 244
12 69 137
12 70 248
12 71 102
12 72 250
12 73 52
12 74 140
12 75 61
12 76 177
12 77 242
12 78 86
12 79 35
12 80 190
12 81 17
12 82 118
12 83 231
12 84 238
12 85 72
12 86 187
12 87 40
12 88 217
12 89 46
12 90 27
13 14 60
13 15 67
13 16 219
13 17 186
13 18 82
13 19 190
13 20 236
13 21 94
13 22 69
13 23 25
13 24 113
13 25 9
13 26 69
13 27 234
13 28 234
13 29 261
13 30 90
13 31 264
13 32 196
13 33 119
13 34 104
13 35 112
13 36 40
13 37 7
13 38 161
13 39 32
13 40 229
13 41 76
13 42 253
13 43 172
13 44 191
13 45 24
13 46 97
13 47 103
13 48 218
13 49 113
13 50 60
13 51 35
13 52 180
13 53 106
13 54 104
13 55 202
13 56 196
13 57 172
13 58 40
13 59 139
13 60 138
13 61 64
13 62 155
13 63 190
13 64 61
13 65 227
13 66 179
13 67 169
13 68 215
13 69 176
13 70 175
13 71 41
13 72 33
13 73 198
13 74 86
13 75 255
13 76 22
13 77 256
13 78 183
13 79 84
13 80 138
13 81 37
13 82 217
13 83 137
13 84 205
13 85 237
13 86 181
13 87 77
13 88 72
13 89 200
13 90 95
14 15 192
14 16 142
14 17 83
14 18 212
14 19 216
14 20 180
14 21 46
14 22 184
14 23 198
14 24 83
14 25 56
14 26 183
14 27 129
14 28 161
14 29 23
14 30 243
14 31 141
14 32 73
14 33 19
14 34 257
14 35 96
14 36 200
14 37 201
14 38 50
14 39 226
14 40 19
14 41 18
14 42 106
14 43 9
14 44 36
14 45 171
14 46 140
14 47 57
14 48 266
14 49 120
14 50 182
14 51 169
14 52 6
14 53 258
14 54 91
14 55 227
14 56 140
14 57 260
14 58 173
14 59 181
14 60 105
14 61 257
14 62 137
14 63 19
14 64 227
14 65 116
14 66 238
14 67 35
14 68 45
14 69 202
14 70 200
14 71 99
14 72 111
14 73 32
14 74 212
14 75 224
14 76 77
14 77 124
14 78 206
14 79 101
14 80 38
14 81 224
14 82 83
14 83 148
14 84 30
14 85 185
14 86 71
14 87 257
14 88 238
14 89 69
14 90 76
15 16 44
15 17 6
15 18 245
15 19 233
15 20 73
15 21 4
15 22 223
15 23 257
15 24 158
15 25 218
15 26 162
15 27 137
15 28 255
15 29 231
15 30 261
15 31 227
15 32 37
15 33 31
15 34 262
15 35 115
15 36 57
15 37 35
15 38 265
15 39 133
15 40 216
15 41 42
15 42 155
15 43 181
15 44 131
15 45 133
15 46 157
15 47 111
15 48 119
15 49 3
15 50 164
15 51 204
15 52 60
15 53 224
15 54 28
15 55 67
15 56 148
15 57 265
15 58 231
15 59 151
15 60 162
15 61 225
15 62 42
15 63 119
15 64 59
15 65 26
15 66 78
15 67 267
15 68 38
15 69 41
15 70 38
15 71 243
15 72 141
15 73 242
15 74 72
15 75 197
15 76 160
15 77 238
15 78 172
15 79 249
15 80 120
15 81 196
15 82 25
15 83 257
15 84 204
15 85 205
15 86 162
15 87 259
15 88 251
15 89 47
15 90 164
16 17 36
16 18 129
16 19 99
16 20 204
16 21 65
16 22 180
16 23 113
16 24 264
16 25 54
16 26 225
16 27 196
16 28 147
16 29 135
16 30 34
16 31 103
16 32 105
16 33 172
16 34 251
16 35 98
16 36 77
16 37 132
16 38 110
16 39 181
16 40 181
16 41 12
16 42 110
16 43 49
16 44 153
16 45 164
16 46 47
16 47 201
16 48 246
16 49 65
16 50 165
16 51 266
16 52 43
16 53 251
16 54 137
16 55 17
16 56 52
16 57 183
16 58 105
16 59 38
16 60 137
16 61 8
16 62 30
16 63 187
16 64 185
16 65 197
16 66 52
16 67 198
16 68 120
16 69 24
16 70 205
16 71 227
16 72 94
16 73 112
16 74 260
16 75 209
16 76 59
16 77 137
16 78 105
16 79 141
16 80 213
16 81 216
16 82 137
16 83 130
16 84 18
16 85 223
16 86 147
16 87 10
16 88 46
16 89 131
16 90 220
17 18 39
17 19 58
17 20 15
17 21 44
17 22 184
17 23 212
17 24 24
17 25 205
17 26 146
17 27 110
17 28 33
17 29 84
17 30 261
17 31 113
17 32 257
17 33 226
17 34 71
17 35 243
17 36 79
17 37 258
17 38 69
17 39 32
17 40 263
17 41 151
17 42 266
17 43 74
17 44 156
17 45 223
17 46 50
17 47 116
17 48 227
17 49 79
17 50 133
17 51 53
17 52 90
17 53 178
17 54 172
17 55 73
17 56 54
17 57 139
17 58 176
17 59 204
17 60 90
17 61 114
17 62 78
17 63 108
17 64 116
17 65 102
17 66 108
17 67 246
17 68 62
17 69 78
17 70 35
17 71 30
17 72 97
17 73 195
17 74 150
17 75 103
17 76 80
17 77 130
17 78 18
17 79 8
17 80 63
17 81 146
17 82 258
17 83 5
17 84 6
17 85 43
17 86 22
17 87 102
17 88 247
17 89 140
17 90 69
18 19 64
18 20 76
18 21 260
18 22 201
18 23 256
18 24 91
18 25 98
18 26 13
18 27 22
18 28 153
18 29 61
18 30 200
18 31 98
18 32 220
18 33 174
18 34 182
18 35 0
18 36 88
18 37 191
18 38 166
18 39 190
18 40 205
18 41 110
18 42 21
18 43 228
18 44 181
18 45 172
18 46 63
18 47 91
18 48 92
18 49 200
18 50 172
18 51 157
18 52 243
18 53 63
18 54 123
18 55 228
18 56 46
18 57 86
18 58 264
18 59 73
18 60 86
18 61 263
18 62 116
18 63 68
18 64 261
18 65 90
18 66 195
18 67 107
18 68 110
18 69 135
18 70 68
18 71 120
18 72 100
18 73 73
18 74 102
18 75 247
18 76 91
18 77 84
18 78 205
18 79 128
18 80 4
18 81 172
18 82 268
18 83 50
18 84 132
18 85 21
18 86 5
18 87 63
18 88 141
18 89 33
18 90 105
19 20 185
19 21 164
19 22 21
19 23 173
19 24 38
19 25 117
19 26 173
19 27 26
19 28 146
19 29 108
19 30 62
19 31 2
19 32 108
19 33 110
19 34 242
19 35 91
19 36 24
19 37 219
19 38 93
19 39 75
19 40 27
19 41 140
19 42 35
19 43 72
19 44 244
19 45 61
19 46 194
19 47 194
19 48 84
19 49 214
19 50 103
19 51 13
19 52 70
19 53 205
19 54 162
19 55 89
19 56 188
19 57 239
19 58 213
19 59 205
19 60 133
19 61 23
19 62 115
19 63 71
19 64 32
19 65 139
19 66 265
19 67 154
19 68 61
19 69 34
19 70 99
19 71 31
19 72 116
19 73 103
19 74 46
19 75 114
19 76 171
19 77 248
19 78 127
19 79 78
19 80 105
19 81 74
19 82 106
19 83 188
19 84 230
19 85 44
19 86 86
19 87 212
19 88 215
19 89 207
19 90 241
20 21 139
20 22 180
20 23 40
20 24 265
20 25 25
20 26 92
20 27 170
20 28 82
20 29 124
20 30 224
20 31 6
20 32 133
20 33 117
20 34 64
20 35 161
20 36 158
20 37 210
20 38 269
20 39 145
20 40 131
20 41 90
20 42 93
20 43 194
20 44 154
20 45 244
20 46 269
20 47 139
20 48 245
20 49 256
20 50 59
20 51 211
20 52 11
20 53 73
20 54 2
20 55 113
20 56 60
20 57 253
20 58 56
20 59 244
20 60 225
20 61 30
20 62 200
20 63 234
20 64 179
20 65 91
20 66 180
20 67 46
20 68 39
20 69 125
20 70 248
20 71 149
20 72 107
20 73 81
20 74 197
20 75 22
20 76 264
20 77 253
20 78 232
20 79 249
20 80 139
20 81 253
20 82 262
20 83 96
20 84 144
20 85 80
20 86 53
20 87 120
20 88 70
20 89 261
20 90 244
21 22 45
21 23 61
21 24 170
21 25 51
21 26 229
21 27 45
21 28 154
21 29 164
21 30 43
21 31 126
21 32 215
21 33 98
21 34 87
21 35 74
21 36 132
21 37 236
21 38 174
21 39 109
21 40 111
21 41 253
21 42 259
21 43 35
21 44 27
21 45 241
21 46 57
21 47 129
21 48 196
21 49 106
21 50 169
21 51 29
21 52 259
21 53 188
21 54 4
21 55 68
21 56 167
21 57 218
21 58 61
21 59 38
21 60 77
21 61 261
21 62 49
21 63 172
21 64 53
21 65 132
21 66 57
21 67 131
21 68 103
21 69 89
21 70 52
21 71 115
21 72 80
21 73 20
21 74 14
21 75 134
21 76 141
21 77 100
21 78 176
21 79 232
21 80 228
21 81 198
21 82 210
21 83 81
21 84 214
21 85 263
21 86 128
21 87 240
21 88 42
21 89 11
21 90 32
22 23 31
22 24 31
22 25 240
22 26 189
22 27 204
22 28 160
22 29 6
22 30 152
22 31 124
22 32 17
22 33 192
22 34 30
22 35 174
22 36 221
22 37 72
22 38 82
22 39 185
22 40 176
22 41 226
22 42 62
22 43 93
22 44 228
22 45 25
22 46 113
22 47 244
22 48 5
22 49 252
22 50 6
22 51 212
22 52 128
22 53 196
22 54 113
22 55 147
22 56 195
22 57 172
22 58 146
22 59 37
22 60 151
22 61 122
22 62 267
22 63 62
22 64 20
22 65 187
22 66 180
22 67 198
22 68 84
22 69 255
22 70 9
22 71 57
22 72 184
22 73 266
22 74 236
22 75 220
22 76 19
22 77 212
22 78 220
22 79 146
22 80 255
22 81 237
22 82 224
22 83 211
22 84 22
22 85 95
22 86 202
22 87 247
22 88 160
22 89 180
22 90 219
23 24 172
23 25 144
23 26 49
23 27 143
23 28 60
23 29 215
23 30 193
23 31 86
23 32 51
23 33 119
23 34 87
23 35 184
23 36 28
23 37 250
23 38 4
23 39 142
23 40 261
23 41 37
23 42 82
23 43 6
23 44 97
23 45 160
23 46 82
23 47 182
23 48 255
23 49 94
23 50 228
23 51 60
23 52 254
23 53 191
23 54 2
23 55 251
23 56 258
23 57 185
23 58 106
23 59 199
23 60 185
23 61 151
23 62 70
23 63 229
23 64 66
23 65 121
23 66 213
23 67 177
23 68 145
23 69 1
23 70 140
23 71 144
23 72 60
23 73 82
23 74 240
23 75 42
23 76 60
23 77 238
23 78 4
23 79 44
23 80 206
23 81 226
23 82 53
23 83 74
23 84 55
23 85 21
23 86 66
23 87 252
23 88 76
23 89 192
23 90 19
24 25 83
24 26 237
24 27 30
24 28 129
24 29 99
24 30 2
24 31 153
24 32 15
24 33 197
24 34 254
24 35 265
24 36 255
24 37 7
24 38 144
24 39 117
24 40 198
24 41 225
24 42 205
24 43 137
24 44 156
24 45 88
24 46 141
24 47 47
24 48 44
24 49 217
24 50 145
24 51 22
24 52 98
24 53 81
24 54 86
24 55 95
24 56 211
24 57 108
24 58 108
24 59 198
24 60 20
24 61 178
24 62 198
24 63 268
24 64 264
24 65 207
24 66 157
24 67 100
24 68 188
24 69 63
24 70 196
24 71 269
24 72 167
24 73 104
24 74 240
24 75 154
24 76 146
24 77 206
24 78 224
24 79 245
24 80 10
24 81 172
24 82 78
24 83 191
24 84 254
24 85 248
24 86 268
24 87 124
24 88 252
24 89 89
24 90 269
25 26 23
25 27 218
25 28 171
25 29 101
25 30 97
25 31 51
25 32 185
25 33 207
25 34 268
25 35 212
25 36 56
25 37 128
25 38 237
25 39 167
25 40 141
25 41 129
25 42 217
25 43 52
25 44 223
25 45 175
25 46 256
25 47 51
25 48 152
25 49 10
25 50 126
25 51 263
25 52 1
25 53 66
25 54 55
25 55 94
25 56 247
25 57 253
25 58 159
25 59 244
25 60 244
25 61 224
25 62 57
25 63 29
25 64 27
25 65 29
25 66 217
25 67 21
25 68 11
25 69 42
25 70 172
25 71 77
25 72 4
25 73 52
25 74 228
25 75 10
25 76 52
25 77 30
25 78 43
25 79 100
25 80 119
25 81 93
25 82 185
25 83 255
25 84 48
25 85 182
25 86 172
25 87 165
25 88 128
25 89 116
25 90 61
26 27 219
26 28 245
26 29 125
26 30 151
26 31 7
26 32 49
26 33 0
26 34 127
26 35 259
26 36 38
26 37 97
26 38 195
26 39 127
26 40 32
26 41 198
26 42 100
26 43 31
26 44 232
26 45 84
26 46 254
26 47 5
26 48 260
26 49 52
26 50 144
26 51 114
26 52 25
26 53 249
26 54 73
26 55 250
26 56 129
26 57 150
26 58 90
26 59 240
26 60 184
26 61 217
26 62 120
26 63 207
26 64 42
26 65 71
26 66 267
26 67 179
26 68 29
26 69 58
26 70 80
26 71 42
26 72 189
26 73 97
26 74 126
26 75 166
26 76 143
26 77 224
26 78 208
26 79 114
26 80 60
26 81 31
26 82 143
26 83 139
26 84 242
26 85 59
26 86 61
26 87 92
26 88 124
26 89 224
26 90 100
27 28 262
27 29 65
27 30 13
27 31 195
27 32 200
27 33 195
27 34 230
27 35 164
27 36 49
27 37 246
27 38 94
27 39 245
27 40 245
27 41 258
27 42 254
27 43 108
27 44 108
27 45 194
27 46 129
27 47 146
27 48 71
27 49 171
27 50 78
27 51 18
27 52 75
27 53 113
27 54 62
27 55 158
27 56 7
27 57 157
27 58 182
27 59 170
27 60 48
27 61 235
27 62 89
27 63 78
27 64 261
27 65 146
27 66 239
27 67 256
27 68 269
27 69 167
27 70 45
27 71 54
27 72 158
27 73 138
27 74 137
27 75 186
27 76 249
27 77 188
27 78 177
27 79 171
27 80 30
27 81 87
27 82 209
27 83 252
27 84 68
27 85 246
27 86 158
27 87 123
27 88 76
27 89 157
27 90 139
28 29 264
28 30 245
28 31 129
28 32 130
28 33 3
28 34 21
28 35 241
28 36 249
28 37 226
28 38 74
28 39 145
28 40 9
28 41 153
28 42 43
28 43 143
28 44 150
28 45 7
28 46 57
28 47 99
28 48 90
28 49 210
28 50 66
28 51 165
28 52 7
28 53 250
28 54 265
28 55 104
28 56 17
28 57 138
28 58 264
28 59 267
28 60 110
28 61 155
28 62 243
28 63 102
28 64 18
28 65 240
28 66 124
28 67 135
28 68 14
28 69 9
28 70 247
28 71 263
28 72 19
28 73 251
28 74 1
28 75 132
28 76 15
28 77 127
28 78 45
28 79 234
28 80 126
28 81 31
28 82 144
28 83 27
28 84 105
28 85 16
28 86 40
28 87 72
28 88 157
28 89 1
28 90 8
29 30 219
29 31 200
29 32 135
29 33 46
29 34 60
29 35 209
29 36 192
29 37 116
29 38 144
29 39 72
29 40 76
29 41 48
29 42 179
29 43 64
29 44 146
29 45 246
29 46 15
29 47 79
29 48 218
29 49 9
29 50 217
29 51 3
29 52 60
29 53 29
29 54 98
29 55 46
29 56 62
29 57 43
29 58 35
29 59 218
29 60 153
29 61 166
29 62 107
29 63 122
29 64 103
29 65 72
29 66 182
29 67 246
29 68 91
29 69 189
29 70 95
29 71 208
29 72 34
29 73 62
29 74 24
29 75 80
29 76 32
29 77 149
29 78 221
29 79 98
29 80 3
29 81 156
29 82 8
29 83 264
29 84 248
29 85 115
29 86 97
29 87 69
29 88 33
29 89 192
29 90 44
30 31 29
30 32 130
30 33 143
30 34 164
30 35 42
30 36 22
30 37 53
30 38 202
30 39 190
30 40 211
30 41 209
30 42 211
30 43 97
30 44 191
30 45 238
30 46 194
30 47 111
30 48 46
30 49 71
30 50 1
30 51 245
30 52 55
30 53 139
30 54 92
30 55 181
30 56 128
30 57 93
30 58 9
30 59 33
30 60 247
30 61 213
30 62 68
30 63 95
30 64 216
30 65 214
30 66 18
30 67 64
30 68 101
30 69 150
30 70 106
30 71 243
30 72 152
30 73 248
30 74 257
30 75 106
30 76 184
30 77 256
30 78 161
30 79 43
30 80 2
30 81 132
30 82 29
30 83 4
30 84 238
30 85 69
30 86 240
30 87 183
30 88 197
30 89 193
30 90 183
31 32 254
31 33 74
31 34 125
31 35 43
31 36 85
31 37 9
31 38 32
31 39 169
31 40 102
31 41 92
31 42 250
31 43 62
31 44 262
31 45 29
31 46 174
31 47 242
31 48 214
31 49 65
31 50 13
31 51 113
31 52 27
31 53 147
31 54 73
31 55 208
31 56 223
31 57 172
31 58 220
31 59 72
31 60 158
31 61 2
31 62 138
31 63 235
31 64 126
31 65 268
31 66 17
31 67 114
31 68 188
31 69 182
31 70 157
31 71 157
31 72 108
31 73 257
31 74 131
31 75 213
31 76 253
31 77 127
31 78 116
31 79 15
31 80 247
31 81 138
31 82 199
31 83 71
31 84 235
31 85 47
31 86 255
31 87 105
31 88 15
31 89 10
31 90 252
32 33 231
32 34 263
32 35 32
32 36 0
32 37 231
32 38 115
32 39 28
32 40 144
32 41 264
32 42 229
32 43 224
32 44 182
32 45 2
32 46 135
32 47 44
32 48 126
32 49 97
32 50 263
32 51 151
32 52 44
32 53 50
32 54 242
32 55 157
32 56 162
32 57 143
32 58 264
32 59 152
32 60 37
32 61 11
32 62 63
32 63 215
32 64 175
32 65 116
32 66 178
32 67 229
32 68 11
32 69 258
32 70 212
32 71 163
32 72 219
32 73 170
32 74 123
32 75 17
32 76 140
32 77 162
32 78 262
32 79 44
32 80 32
32 81 210
32 82 228
32 83 191
32 84 106
32 85 262
32 86 34
32 87 130
32 88 38
32 89 102
32 90 121
33 34 216
33 35 224
33 36 93
33 37 5
33 38 183
33 39 134
33 40 189
33 41 192
33 42 52
33 43 231
33 44 127
33 45 79
33 46 24
33 47 192
33 48 178
33 49 173
33 50 74
33 51 250
33 52 193
33 53 235
33 54 266
33 55 256
33 56 54
33 57 207
33 58 53
33 59 131
33 60 221
33 61 262
33 62 143
33 63 153
33 64 71
33 65 166
33 66 145
33 67 238
33 68 33
33 69 115
33 70 170
33 71 264
33 72 137
33 73 2
33 74 28
33 75 247
33 76 167
33 77 106
33 78 4
33 79 152
33 80 160
33 81 60
33 82 240
33 83 244
33 84 4
33 85 71
33 86 187
33 87 248
33 88 18
33 89 38
33 90 15
34 35 248
34 36 57
34 37 210
34 38 138
34 39 104
34 40 43
34 41 58
34 42 93
34 43 46
34 44 16
34 45 122
34 46 123
34 47 199
34 48 145
34 49 140
34 50 120
34 51 100
34 52 33
34 53 136
34 54 89
34 55 177
34 56 208
34 57 146
34 58 156
34 59 234
34 60 93
34 61 69
34 62 239
34 63 248
34 64 173
34 65 89
34 66 144
34 67 66
34 68 131
34 69 262
34 70 179
34 71 198
34 72 43
34 73 237
34 74 148
34 75 96
34 76 55
34 77 227
34 78 179
34 79 108
34 80 217
34 81 9
34 82 82
34 83 6
34 84 130
34 85 77
34 86 175
34 87 206
34 88 228
34 89 96
34 90 156
35 36 269
35 37 264
35 38 10
35 39 182
35 40 142
35 41 235
35 42 31
35 43 76
35 44 122
35 45 206
35 46 228
35 47 116
35 48 217
35 49 269
35 50 131
35 51 22
35 52 100
35 53 83
35 54 221
35 55 192
35 56 256
35 57 191
35 58 6
35 59 159
35 60 259
35 61 192
35 62 14
35 63 2
35 64 132
35 65 248
35 66 105
35 67 42
35 68 107
35 69 80
35 70 102
35 71 51
35 72 221
35 73 249
35 74 203
35 75 105
35 76 252
35 77 245
35 78 249
35 79 179
35 80 141
35 81 200
35 82 264
35 83 78
35 84 246
35 85 201
35 86 117
35 87 264
35 88 60
35 89 257
35 90 166
36 37 18
36 38 208
36 39 88
36 40 171
36 41 182
36 42 207
36 43 27
36 44 140
36 45 82
36 46 118
36 47 224
36 48 136
36 49 170
36 50 194
36 51 15
36 52 89
36 53 209
36 54 120
36 55 51
36 56 206
36 57 162
36 58 65
36 59 206
36 60 149
36 61 228
36 62 231
36 63 27
36 64 257
36 65 132
36 66 212
36 67 222
36 68 84
36 69 84
36 70 133
36 71 188
36 72 18
36 73 174
36 74 214
36 75 117
36 76 53
36 77 138
36 78 69
36 79 67
36 80 67
36 81 255
36 82 11
36 83 44
36 84 135
36 85 191
36 86 149
36 87 77
36 88 180
36 89 42
36 90 29
37 38 97
37 39 149
37 40 135
37 41 17
37 42 98
37 43 184
37 44 94
37 45 169
37 46 258
37 47 26
37 48 119
37 49 37
37 50 132
37 51 62
37 52 146
37 53 43
37 54 17
37 55 157
37 56 126
37 57 219
37 58 191
37 59 259
37 60 121
37 61 18
37 62 46
37 63 196
37 64 216
37 65 195
37 66 114
37 67 121
37 68 39
37 69 156
37 70 204
37 71 136
37 72 227
37 73 105
37 74 64
37 75 94
37 76 110
37 77 83
37 78 133
37 79 246
37 80 91
37 81 45
37 82 42
37 83 221
37 84 234
37 85 206
37 86 107
37 87 170
37 88 125
37 89 7
37 90 67
38 39 140
38 40 220
38 41 206
38 42 80
38 43 37
38 44 269
38 45 202
38 46 144
38 47 124
38 48 29
38 49 16
38 50 92
38 51 83
38 52 177
38 53 20
38 54 200
38 55 201
38 56 220
38 57 30
38 58 221
38 59 110
38 60 53
38 61 4
38 62 95
38 63 251
38 64 166
38 65 23
38 66 154
38 67 16
38 68 164
38 69 39
38 70 36
38 71 227
38 72 142
38 73 147
38 74 179
38 75 147
38 76 1
38 77 169
38 78 20
38 79 52
38 80 97
38 81 112
38 82 88
38 83 131
38 84 54
38 85 269
38 86 104
38 87 153
38 88 55
38 89 109
38 90 248
39 40 174
39 41 157
39 42 214
39 43 255
39 44 204
39 45 40
39 46 106
39 47 142
39 48 80
39 49 139
39 50 196
39 51 145
39 52 147
39 53 23
39 54 262
39 55 125
39 56 77
39 57 264
39 58 44
39 59 70
39 60 35
39 61 146
39 62 22
39 63 249
39 64 112
39 65 143
39 66 218
39 67 118
39 68 21
39 69 246
39 70 225
39 71 98
39 72 201
39 73 78
39 74 234
39 75 149
39 76 215
39 77 23
39 78 234
39 79 199
39 80 206
39 81 230
39 82 17
39 83 240
39 84 43
39 85 184
39 86 76
39 87 110
39 88 174
39 89 167
39 90 34
40 41 24
40 42 78
40 43 246
40 44 153
40 45 178
40 46 83
40 47 137
40 48 206
40 49 266
40 50 262
40 51 195
40 52 122
40 53 17
40 54 241
40 55 56
40 56 234
40 57 3
40 58 178
40 59 49
40 60 128
40 61 48
40 62 98
40 63 76
40 64 200
40 65 100
40 66 138
40 67 46
40 68 234
40 69 45
40 70 46
40 71 37
40 72 108
40 73 251
40 74 234
40 75 5
40 76 50
40 77 215
40 78 42
40 79 193
40 80 131
40 81 190
40 82 55
40 83 190
40 84 180
40 85 190
40 86 85
40 87 201
40 88 115
40 89 107
40 90 221
41 42 128
41 43 166
41 44 248
41 45 217
41 46 176
41 47 78
41 48 189
41 49 97
41 50 113
41 51 222
41 52 70
41 53 145
41 54 177
41 55 184
41 56 70
41 57 142
41 58 111
41 59 212
41 60 14
41 61 42
41 62 169
41 63 121
41 64 106
41 65 233
41 66 62
41 67 223
41 68 193
41 69 166
41 70 121
41 71 95
41 72 206
41 73 133
41 74 225
41 75 24
41 76 166
41 77 14
41 78 190
41 79 135
41 80 34
41 81 124
41 82 124
41 83 187
41 84 57
41 85 115
41 86 35
41 87 61
41 88 12
41 89 106
41 90 235
42 43 81
42 44 188
42 45 150
42 46 268
42 47 186
42 48 237
42 49 111
42 50 210
42 51 0
42 52 200
42 53 158
42 54 189
42 55 112
42 56 137
42 57 81
42 58 125
42 59 33
42 60 255
42 61 5
42 62 230
42 63 129
42 64 201
42 65 129
42 66 98
42 67 20
42 68 255
42 69 142
42 70 167
42 71 193
42 72 169
42 73 81
42 74 74
42 75 51
42 76 190
42 77 72
42 78 222
42 79 25
42 80 191
42 81 180
42 82 243
42 83 37
42 84 143
42 85 202
42 86 190
42 87 223
42 88 261
42 89 28
42 90 106
43 44 37
43 45 102
43 46 33
43 47 165
43 48 266
43 49 55
43 50 246
43 51 221
43 52 96
43 53 141
43 54 103
43 55 17
43 56 109
43 57 15
43 58 263
43 59 109
43 60 31
43 61 249
43 62 79
43 63 152
43 64 169
43 65 254
43 66 24
43 67 229
43 68 35
43 69 91
43 70 215
43 71 75
43 72 254
43 73 65
43 74 265
43 75 213
43 76 176
43 77 14
43 78 106
43 79 89
43 80 31
43 81 211
43 82 18
43 83 187
43 84 82
43 85 234
43 86 160
43 87 82
43 88 201
43 89 115
43 90 94
44 45 262
44 46 205
44 47 19
44 48 47
44 49 103
44 50 156
44 51 111
44 52 246
44 53 82
44 54 215
44 55 2
44 56 162
44 57 157
44 58 52
44 59 136
44 60 267
44 61 155
44 62 122
44 63 268
44 64 22
44 65 72
44 66 199
44 67 169
44 68 59
44 69 39
44 70 63
44 71 42
44 72 97
44 73 136
44 74 206
44 75 188
44 76 56
44 77 58
44 78 148
44 79 133
44 80 267
44 81 2
44 82 198
44 83 209
44 84 111
44 85 138
44 86 155
44 87 6
44 88 226
44 89 73
44 90 235
45 46 198
45 47 254
45 48 248
45 49 260
45 50 133
45 51 47
45 52 161
45 53 54
45 54 248
45 55 159
45 56 266
45 57 98
45 58 174
45 59 85
45 60 97
45 61 110
45 62 184
45 63 249
45 64 98
45 65 42
45 66 10
45 67 107
45 68 228
45 69 183
45 70 28
45 71 262
45 72 159
45 73 50
45 74 189
45 75 263
45 76 147
45 77 78
45 78 130
45 79 184
45 80 241
45 81 222
45 82 115
45 83 126
45 84 117
45 85 126
45 86 123
45 87 62
45 88 117
45 89 39
45 90 69
46 47 205
46 48 67
46 49 39
46 50 135
46 51 218
46 52 243
46 53 117
46 54 132
46 55 264
46 56 10
46 57 131
46 58 140
46 59 176
46 60 95
46 61 108
46 62 36
46 63 19
46 64 136
46 65 10
46 66 25
46 67 127
46 68 159
46 69 15
46 70 61
46 71 126
46 72 117
46 73 48
46 74 207
46 75 255
46 76 33
46 77 84
46 78 18
46 79 56
46 80 20
46 81 159
46 82 53
46 83 200
46 84 38
46 85 189
46 86 27
46 87 31
46 88 128
46 89 250
46 90 9
47 48 161
47 49 156
47 50 120
47 51 218
47 52 208
47 53 169
47 54 192
47 55 153
47 56 177
47 57 147
47 58 137
47 59 98
47 60 119
47 61 203
47 62 245
47 63 186
47 64 111
47 65 81
47 66 246
47 67 97
47 68 69
47 69 15
47 70 53
47 71 250
47 72 19
47 73 37
47 74 81
47 75 23
47 76 3
47 77 74
47 78 23
47 79 253
47 80 47
47 81 122
47 82 94
47 83 47
47 84 9
47 85 10
47 86 209
47 87 33
47 88 217
47 89 32
47 90 228
48 49 34
48 50 236
48 51 68
48 52 266
48 53 192
48 54 267
48 55 19
48 56 265
48 57 187
48 58 58
48 59 75
48 60 229
48 61 57
48 62 215
48 63 123
48 64 215
48 65 43
48 66 132
48 67 102
48 68 143
48 69 119
48 70 260
48 71 248
48 72 107
48 73 37
48 74 200
48 75 252
48 76 240
48 77 78
48 78 38
48 79 135
48 80 158
48 81 180
48 82 59
48 83 7
48 84 92
48 85 101
48 86 224
48 87 222
48 88 9
48 89 232
48 90 76
49 50 57
49 51 46
49 52 240
49 53 153
49 54 92
49 55 188
49 56 240
49 57 265
49 58 128
49 59 244
49 60 104
49 61 30
49 62 73
49 63 86
49 64 52
49 65 60
49 66 10
49 67 179
49 68 269
49 69 87
49 70 261
49 71 105
49 72 247
49 73 41
49 74 101
49 75 95
49 76 194
49 77 86
49 78 227
49 79 21
49 80 4
49 81 251
49 82 104
49 83 183
49 84 114
49 85 186
49 86 169
49 87 74
49 88 76
49 89 147
49 90 35
50 51 207
50 52 7
50 53 21
50 54 101
50 55 81
50 56 9
50 57 233
50 58 62
50 59 12
50 60 12
50 61 259
50 62 130
50 63 96
50 64 201
50 65 114
50 66 115
50 67 205
50 68 156
50 69 226
50 70 41
50 71 33
50 72 132
50 73 90
50 74 220
50 75 36
50 76 20
50 77 195
50 78 259
50 79 78
50 80 2
50 81 83
50 82 111
50 83 217
50 84 194
50 85 3
50 86 235
50 87 27
50 88 196
50 89 117
50 90 67
51 52 26
51 53 28
51 54 23
51 55 236
51 56 186
51 57 174
51 58 176
51 59 184
51 60 266
51 61 216
51 62 263
51 63 264
51 64 54
51 65 250
51 66 44
51 67 207
51 68 246
51 69 233
51 70 131
51 71 41
51 72 246
51 73 221
51 74 240
51 75 253
51 76 58
51 77 122
51 78 211
51 79 174
51 80 135
51 81 29
51 82 6
51 83 84
51 84 145
51 85 38
51 86 246
51 87 71
51 88 119
51 89 12
51 90 13
52 53 230
52 54 102
52 55 85
52 56 11
52 57 174
52 58 57
52 59 89
52 60 214
52 61 256
52 62 140
52 63 91
52 64 76
52 65 34
52 66 15
52 67 91
52 68 213
52 69 155
52 70 236
52 71 45
52 72 247
52 73 154
52 74 237
52 75 115
52 76 20
52 77 87
52 78 176
52 79 159
52 80 136
52 81 110
52 82 264
52 83 245
52 84 197
52 85 242
52 86 26
52 87 16
52 88 215
52 89 122
52 90 214
53 54 145
53 55 123
53 56 257
53 57 19
53 58 239
53 59 179
53 60 44
53 61 34
53 62 266
53 63 265
53 64 242
53 65 54
53 66 5
53 67 240
53 68 217
53 69 43
53 70 145
53 71 74
53 72 192
53 73 145
53 74 158
53 75 223
53 76 156
53 77 68
53 78 85
53 79 70
53 80 185
53 81 166
53 82 191
53 83 95
53 84 218
53 85 235
53 86 170
53 87 176
53 88 18
53 89 117
53 90 25
54 55 171
54 56 105
54 57 24
54 58 161
54 59 184
54 60 136
54 61 138
54 62 85
54 63 163
54 64 88
54 65 105
54 66 239
54 67 76
54 68 197
54 69 238
54 70 209
54 71 255
54 72 237
54 73 109
54 74 46
54 75 229
54 76 253
54 77 245
54 78 17
54 79 89
54 80 204
54 81 37
54 82 65
54 83 215
54 84 17
54 85 6
54 86 115
54 87 47
54 88 152
54 89 243
54 90 67
55 56 66
55 57 160
55 58 267
55 59 25
55 60 247
55 61 142
55 62 109
55 63 57
55 64 164
55 65 192
55 66 208
55 67 108
55 68 240
55 69 262
55 70 165
55 71 81
55 72 184
55 73 77
55 74 233
55 75 60
55 76 52
55 77 66
55 78 142
55 79 171
55 80 92
55 81 242
55 82 64
55 83 90
55 84 204
55 85 88
55 86 112
55 87 22
55 88 221
55 89 156
55 90 240
56 57 115
56 58 143
56 59 212
56 60 207
56 61 218
56 62 247
56 63 53
56 64 31
56 65 41
56 66 267
56 67 59
56 68 165
56 69 117
56 70 144
56 71 215
56 72 96
56 73 13
56 74 261
56 75 43
56 76 228
56 77 126
56 78 110
56 79 13
56 80 259
56 81 178
56 82 199
56 83 9
56 84 201
56 85 214
56 86 216
56 87 202
56 88 257
56 89 54
56 90 247
57 58 193
57 59 192
57 60 37
57 61 7
57 62 208
57 63 107
57 64 117
57 65 43
57 66 119
57 67 47
57 68 214
57 69 170
57 70 120
57 71 253
57 72 206
57 73 121
57 74 144
57 75 204
57 76 16
57 77 200
57 78 58
57 79 94
57 80 142
57 81 20
57 82 247
57 83 47
57 84 232
57 85 196
57 86 60
57 87 230
57 88 32
57 89 27
57 90 113
58 59 105
58 60 130
58 61 235
58 62 11
58 63 77
58 64 179
58 65 167
58 66 248
58 67 13
58 68 129
58 69 249
58 70 127
58 71 94
58 72 115
58 73 126
58 74 224
58 75 148
58 76 14
58 77 53
58 78 82
58 79 210
58 80 190
58 81 88
58 82 131
58 83 93
58 84 248
58 85 4
58 86 109
58 87 204
58 88 259
58 89 100
58 90 24
59 60 121
59 61 205
59 62 230
59 63 49
59 64 69
59 65 194
59 66 179
59 67 218
59 68 149
59 69 50
59 70 13
59 71 111
59 72 164
59 73 55
59 74 43
59 75 135
59 76 184
59 77 87
59 78 140
59 79 242
59 80 268
59 81 135
59 82 85
59 83 144
59 84 63
59 85 94
59 86 74
59 87 34
59 88 239
59 89 124
59 90 173
60 61 154
60 62 102
60 63 26
60 64 180
60 65 153
60 66 241
60 67 231
60 68 107
60 69 230
60 70 44
60 71 138
60 72 231
60 73 261
60 74 22
60 75 116
60 76 165
60 77 44
60 78 130
60 79 28
60 80 132
60 81 262
60 82 138
60 83 265
60 84 212
60 85 267
60 86 119
60 87 231
60 88 105
60 89 34
60 90 62
61 62 261
61 63 123
61 64 166
61 65 125
61 66 230
61 67 24
61 68 113
61 69 120
61 70 221
61 71 22
61 72 80
61 73 127
61 74 221
61 75 213
61 76 185
61 77 136
61 78 38
61 79 97
61 80 214
61 81 5
61 82 25
61 83 249
61 84 31
61 85 155
61 86 241
61 87 240
61 88 256
61 89 199
61 90 19
62 63 130
62 64 243
62 65 126
62 66 164
62 67 36
62 68 260
62 69 6
62 70 202
62 71 166
62 72 136
62 73 207
62 74 187
62 75 123
62 76 62
62 77 153
62 78 181
62 79 113
62 80 212
62 81 179
62 82 120
62 83 143
62 84 248
62 85 264
62 86 228
62 87 59
62 88 209
62 89 25
62 90 55
63 64 214
63 65 111
63 66 86
63 67 182
63 68 196
63 69 62
63 70 22
63 71 187
63 72 207
63 73 156
63 74 207
63 75 155
63 76 199
63 77 157
63 78 12
63 79 89
63 80 198
63 81 258
63 82 221
63 83 42
63 84 142
63 85 221
63 86 239
63 87 167
63 88 134
63 89 247
63 90 130
64 65 132
64 66 130
64 67 144
64 68 91
64 69 243
64 70 114
64 71 21
64 72 262
64 73 4
64 74 107
64 75 167
64 76 164
64 77 254
64 78 142
64 79 104
64 80 241
64 81 55
64 82 105
64 83 101
64 84 124
64 85 108
64 86 225
64 87 108
64 88 161
64 89 106
64 90 39
65 66 199
65 67 264
65 68 16
65 69 206
65 70 180
65 71 150
65 72 248
65 73 118
65 74 41
65 75 151
65 76 45
65 77 86
65 78 214
65 79 62
65 80 258
65 81 83
65 82 200
65 83 6
65 84 103
65 85 183
65 86 266
65 87 135
65 88 163
65 89 166
65 90 111
66 67 9
66 68 163
66 69 259
66 70 191
66 71 89
66 72 239
66 73 245
66 74 95
66 75 128
66 76 224
66 77 207
66 78 251
66 79 205
66 80 37
66 81 111
66 82 219
66 83 61
66 84 189
66 85 77
66 86 57
66 87 253
66 88 81
66 89 3
66 90 102
67 68 68
67 69 156
67 70 55
67 71 150
67 72 134
67 73 205
67 74 133
67 75 96
67 76 55
67 77 62
67 78 111
67 79 12
67 80 105
67 81 217
67 82 55
67 83 203
67 84 237
67 85 151
67 86 47
67 87 39
67 88 242
67 89 201
67 90 149
68 69 95
68 70 214
68 71 191
68 72 124
68 73 60
68 74 11
68 75 138
68 76 181
68 77 259
68 78 232
68 79 260
68 80 149
68 81 140
68 82 6
68 83 146
68 84 172
68 85 40
68 86 115
68 87 9
68 88 170
68 89 99
68 90 228
69 70 245
69 71 153
69 72 190
69 73 45
69 74 167
69 75 191
69 76 156
69 77 104
69 78 177
69 79 71
69 80 24
69 81 96
69 82 19
69 83 173
69 84 182
69 85 18
69 86 177
69 87 72
69 88 83
69 89 246
69 90 177
70 71 195
70 72 50
70 73 85
70 74 39
70 75 152
70 76 108
70 77 156
70 78 30
70 79 171
70 80 9
70 81 10
70 82 201
70 83 113
70 84 218
70 85 197
70 86 155
70 87 96
70 88 265
70 89 216
70 90 170
71 72 125
71 73 9
71 74 137
71 75 157
71 76 88
71 77 219
71 78 53
71 79 155
71 80 209
71 81 223
71 82 240
71 83 14
71 84 153
71 85 239
71 86 250
71 87 184
71 88 131
71 89 201
71 90 78
72 73 118
72 74 218
72 75 44
72 76 49
72 77 125
72 78 118
72 79 266
72 80 27
72 81 64
72 82 222
72 83 163
72 84 10
72 85 32
72 86 26
72 87 24
72 88 107
72 89 6
72 90 110
73 74 166
73 75 85
73 76 97
73 77 179
73 78 183
73 79 72
73 80 227
73 81 142
73 82 219
73 83 258
73 84 148
73 85 161
73 86 66
73 87 232
73 88 83
73 89 36
73 90 269
74 75 8
74 76 238
74 77 89
74 78 51
74 79 229
74 80 18
74 81 86
74 82 45
74 83 48
74 84 123
74 85 14
74 86 161
74 87 241
74 88 71
74 89 196
74 90 18
75 76 136
75 77 231
75 78 242
75 79 28
75 80 252
75 81 185
75 82 10
75 83 87
75 84 116
75 85 28
75 86 131
75 87 25
75 88 211
75 89 207
75 90 166
76 77 161
76 78 249
76 79 172
76 80 236
76 81 134
76 82 70
76 83 266
76 84 84
76 85 132
76 86 257
76 87 67
76 88 70
76 89 188
76 90 208
77 78 96
77 79 93
77 80 160
77 81 142
77 82 262
77 83 184
77 84 161
77 85 94
77 86 82
77 87 193
77 88 46
77 89 28
77 90 124
78 79 8
78 80 107
78 81 146
78 82 7
78 83 106
78 84 123
78 85 228
78 86 236
78 87 187
78 88 189
78 89 108
78 90 0
79 80 157
79 81 264
79 82 194
79 83 195
79 84 127
79 85 126
79 86 81
79 87 138
79 88 202
79 89 29
79 90 48
80 81 163
80 82 215
80 83 202
80 84 11
80 85 160
80 86 39
80 87 74
80 88 114
80 89 176
80 90 36
81 82 102
81 83 224
81 84 133
81 85 189
81 86 162
81 87 112
81 88 236
81 89 218
81 90 225
82 83 239
82 84 118
82 85 78
82 86 130
82 87 233
82 88 6
82 89 94
82 90 41
83 84 219
83 85 227
83 86 48
83 87 186
83 88 106
83 89 3
83 90 154
84 85 69
84 86 219
84 87 179
84 88 217
84 89 214
84 90 132
85 86 186
85 87 95
85 88 250
85 89 173
85 90 4
86 87 189
86 88 1
86 89 84
86 90 267
87 88 101
87 89 148
87 90 238
88 89 123
88 90 255
89 90 267
